22, 7796
8773, 4413
6971, 4772
7785, 2136
8726, 3814
2800, 2110
5108, 4655
5273, 2075
9426, 3757
3746, 3473
4220, 2108
4767, 1347
6237, 1955
8354, 2796
5300, 1517
11031, 1601
5148, 2763
11756, 3875
10106, 1227
3302, 2553
12474, 4420
7183, 2775
10417, 3695